; benchmark generated from python API
(set-info :status unknown)
(declare-fun x_months () Int)
(declare-fun x_beta () Int)
(assert
 (<= (- 1200) x_months))
(assert
 (>= 1199 x_months))
(assert
 (>= x_beta 0))
(assert
 (let ((?x3092 (+ x_months 24003)))
 (let ((?x600 (- ?x3092 (* (div (- ?x3092 1) 12) 12))))
 (let ((?x1872 (ite (or (= ?x600 4) (= ?x600 6) (= ?x600 9) (= ?x600 11)) 30 31)))
 (let (($x2618 (and (= (mod (div (- ?x3092 1) 12) 4) 0) (and (distinct (mod (div (- ?x3092 1) 12) 100) 0) true))))
 (let ((?x1148 (ite (or $x2618 (= (mod (div (- ?x3092 1) 12) 400) 0)) 29 28)))
 (< x_beta (ite (= ?x600 2) ?x1148 ?x1872))))))))
(assert
 (let (($x2668 (and (= x_months (- (+ (* 2023 12) 1) 24003)) (<= 0 x_beta))))
 (or (> x_months (- (+ (* 2023 12) 1) 24003)) $x2668)))
(assert
 (let (($x2887 (and (= x_months (- (+ (* 2023 12) 12) 24003)) (>= 30 x_beta))))
 (or (< x_months (- (+ (* 2023 12) 12) 24003)) $x2887)))
(assert
 (let ((?x3002 (+ x_beta 1)))
(let ((?x1291 (+ (+ x_months 0) 24003)))
(let ((?x2183 (- ?x1291 (* (div (- ?x1291 1) 12) 12))))
(let ((?x2524 (ite (or (= ?x2183 4) (= ?x2183 6) (= ?x2183 9) (= ?x2183 11)) 30 31)))
(let (($x3894 (and (= (mod (div (- ?x1291 1) 12) 4) 0) (and (distinct (mod (div (- ?x1291 1) 12) 100) 0) true))))
(let (($x2558 (or $x3894 (= (mod (div (- ?x1291 1) 12) 400) 0))))
(let ((?x505 (ite (= ?x2183 2) (ite $x2558 29 28) ?x2524)))
(let (($x3715 (> 1 ?x3002)))
(let ((?x1389 (ite $x3715 1 (ite (> ?x3002 ?x505) ?x505 ?x3002))))
(let ((?x3171 (ite (> 1 ?x1389) 1 (ite (> ?x1389 ?x505) ?x505 ?x1389))))
(let ((?x3529 (ite (= 2 ?x2183) (ite $x2558 31 31) (ite (= 1 ?x2183) (ite $x2558 0 0) 0))))
(let ((?x2679 (ite (= 4 ?x2183) (ite $x2558 91 90) (ite (= 3 ?x2183) (ite $x2558 60 59) ?x3529))))
(let ((?x922 (ite (= 6 ?x2183) (ite $x2558 152 151) (ite (= 5 ?x2183) (ite $x2558 121 120) ?x2679))))
(let ((?x444 (ite (= 8 ?x2183) (ite $x2558 213 212) (ite (= 7 ?x2183) (ite $x2558 182 181) ?x922))))
(let ((?x1356 (ite (= 10 ?x2183) (ite $x2558 274 273) (ite (= 9 ?x2183) (ite $x2558 244 243) ?x444))))
(let ((?x3801 (ite (= 12 ?x2183) (ite $x2558 335 334) (ite (= 11 ?x2183) (ite $x2558 305 304) ?x1356))))
(let ((?x2008 (+ (* 365 (- (div (- ?x1291 1) 12) 1)) (div (- (div (- ?x1291 1) 12) 1) 4))))
(let ((?x1050 (+ (- ?x2008 (div (- (div (- ?x1291 1) 12) 1) 100)) (div (- (div (- ?x1291 1) 12) 1) 400))))
(let ((?x925 (+ (+ (- (+ (+ ?x1050 ?x3801) (- ?x3171 1)) 730179) 61) 730179)))
(let ((?x1119 (mod ?x925 146097)))
(let ((?x2445 (div ?x1119 36524)))
(let ((?x2936 (ite (<= 4 ?x2445) 3 ?x2445)))
(let ((?x1927 (- ?x1119 (* ?x2936 36524))))
(let ((?x1190 (mod ?x1927 1461)))
(let ((?x1802 (div ?x1190 365)))
(let ((?x712 (ite (<= 4 ?x1802) 3 ?x1802)))
(let ((?x2567 (+ (+ (* (div ?x925 146097) 400) (* ?x2936 100)) (* (div ?x1927 1461) 4))))
(let ((?x1981 (+ (+ ?x2567 ?x712) 1)))
(let (($x4250 (or (and (= (mod ?x1981 4) 0) (and (distinct (mod ?x1981 100) 0) true)) (= (mod ?x1981 400) 0))))
(let ((?x3018 (- ?x1190 (* ?x712 365))))
(let ((?x2420 (ite $x4250 31 31)))
(let (($x1640 (>= ?x3018 ?x2420)))
(let ((?x2177 (ite $x1640 (+ (- ?x3018 ?x2420) 1) (+ (- ?x3018 (ite $x4250 0 0)) 1))))
(let ((?x3598 (ite $x4250 60 59)))
(let (($x2068 (>= ?x3018 ?x3598)))
(let ((?x3890 (ite $x4250 91 90)))
(let (($x1652 (>= ?x3018 ?x3890)))
(let ((?x3943 (ite $x1652 (+ (- ?x3018 ?x3890) 1) (ite $x2068 (+ (- ?x3018 ?x3598) 1) ?x2177))))
(let ((?x1929 (ite $x4250 121 120)))
(let (($x2020 (>= ?x3018 ?x1929)))
(let ((?x1344 (ite $x4250 152 151)))
(let (($x3517 (>= ?x3018 ?x1344)))
(let ((?x1788 (ite $x3517 (+ (- ?x3018 ?x1344) 1) (ite $x2020 (+ (- ?x3018 ?x1929) 1) ?x3943))))
(let ((?x1220 (ite $x4250 182 181)))
(let (($x2306 (>= ?x3018 ?x1220)))
(let ((?x584 (ite $x4250 213 212)))
(let (($x2157 (>= ?x3018 ?x584)))
(let ((?x2969 (ite $x2157 (+ (- ?x3018 ?x584) 1) (ite $x2306 (+ (- ?x3018 ?x1220) 1) ?x1788))))
(let ((?x4011 (ite $x4250 244 243)))
(let (($x2939 (>= ?x3018 ?x4011)))
(let ((?x2667 (ite $x4250 274 273)))
(let (($x1230 (>= ?x3018 ?x2667)))
(let ((?x4029 (ite $x1230 (+ (- ?x3018 ?x2667) 1) (ite $x2939 (+ (- ?x3018 ?x4011) 1) ?x2969))))
(let ((?x1782 (ite $x4250 305 304)))
(let (($x3353 (>= ?x3018 ?x1782)))
(let ((?x1384 (ite $x4250 335 334)))
(let (($x2195 (>= ?x3018 ?x1384)))
(let ((?x2201 (ite $x2195 (+ (- ?x3018 ?x1384) 1) (ite $x3353 (+ (- ?x3018 ?x1782) 1) ?x4029))))
(let (($x1336 (= 61 0)))
(let ((?x3864 (+ (+ x_months 2) 24003)))
(let ((?x2590 (- ?x3864 (* (div (- ?x3864 1) 12) 12))))
(let ((?x3260 (ite (or (= ?x2590 4) (= ?x2590 6) (= ?x2590 9) (= ?x2590 11)) 30 31)))
(let (($x1381 (and (= (mod (div (- ?x3864 1) 12) 4) 0) (and (distinct (mod (div (- ?x3864 1) 12) 100) 0) true))))
(let (($x1854 (or $x1381 (= (mod (div (- ?x3864 1) 12) 400) 0))))
(let ((?x650 (ite (= ?x2590 2) (ite $x1854 29 28) ?x3260)))
(let ((?x3136 (ite $x3715 1 (ite (> ?x3002 ?x650) ?x650 ?x3002))))
(let ((?x2100 (ite (> 1 ?x3136) 1 (ite (> ?x3136 ?x650) ?x650 ?x3136))))
(let ((?x3570 (ite (= 2 ?x2590) (ite $x1854 31 31) (ite (= 1 ?x2590) (ite $x1854 0 0) 0))))
(let ((?x2389 (ite (= 4 ?x2590) (ite $x1854 91 90) (ite (= 3 ?x2590) (ite $x1854 60 59) ?x3570))))
(let ((?x1361 (ite (= 6 ?x2590) (ite $x1854 152 151) (ite (= 5 ?x2590) (ite $x1854 121 120) ?x2389))))
(let ((?x1791 (ite (= 8 ?x2590) (ite $x1854 213 212) (ite (= 7 ?x2590) (ite $x1854 182 181) ?x1361))))
(let ((?x1480 (ite (= 10 ?x2590) (ite $x1854 274 273) (ite (= 9 ?x2590) (ite $x1854 244 243) ?x1791))))
(let ((?x1272 (ite (= 12 ?x2590) (ite $x1854 335 334) (ite (= 11 ?x2590) (ite $x1854 305 304) ?x1480))))
(let ((?x2346 (+ (* 365 (- (div (- ?x3864 1) 12) 1)) (div (- (div (- ?x3864 1) 12) 1) 4))))
(let ((?x2043 (+ (- ?x2346 (div (- (div (- ?x3864 1) 12) 1) 100)) (div (- (div (- ?x3864 1) 12) 1) 400))))
(let ((?x2872 (+ (+ (- (+ (+ ?x2043 ?x1272) (- ?x2100 1)) 730179) 0) 730179)))
(let ((?x1928 (mod ?x2872 146097)))
(let ((?x998 (div ?x1928 36524)))
(let ((?x1367 (ite (<= 4 ?x998) 3 ?x998)))
(let ((?x2407 (- ?x1928 (* ?x1367 36524))))
(let ((?x3770 (mod ?x2407 1461)))
(let ((?x1400 (div ?x3770 365)))
(let ((?x2086 (ite (<= 4 ?x1400) 3 ?x1400)))
(let ((?x1276 (+ (+ (* (div ?x2872 146097) 400) (* ?x1367 100)) (* (div ?x2407 1461) 4))))
(let ((?x3379 (+ (+ ?x1276 ?x2086) 1)))
(let (($x1544 (or (and (= (mod ?x3379 4) 0) (and (distinct (mod ?x3379 100) 0) true)) (= (mod ?x3379 400) 0))))
(let ((?x3304 (- ?x3770 (* ?x2086 365))))
(let ((?x496 (ite $x1544 31 31)))
(let (($x3170 (>= ?x3304 ?x496)))
(let ((?x3190 (ite $x3170 (+ (- ?x3304 ?x496) 1) (+ (- ?x3304 (ite $x1544 0 0)) 1))))
(let ((?x1339 (ite $x1544 60 59)))
(let (($x1223 (>= ?x3304 ?x1339)))
(let ((?x3417 (ite $x1544 91 90)))
(let (($x2805 (>= ?x3304 ?x3417)))
(let ((?x3803 (ite $x2805 (+ (- ?x3304 ?x3417) 1) (ite $x1223 (+ (- ?x3304 ?x1339) 1) ?x3190))))
(let ((?x1474 (ite $x1544 121 120)))
(let (($x1222 (>= ?x3304 ?x1474)))
(let ((?x2034 (ite $x1544 152 151)))
(let (($x2591 (>= ?x3304 ?x2034)))
(let ((?x1312 (ite $x2591 (+ (- ?x3304 ?x2034) 1) (ite $x1222 (+ (- ?x3304 ?x1474) 1) ?x3803))))
(let ((?x3706 (ite $x1544 182 181)))
(let (($x4284 (>= ?x3304 ?x3706)))
(let ((?x1009 (ite $x1544 213 212)))
(let (($x3666 (>= ?x3304 ?x1009)))
(let ((?x806 (ite $x3666 (+ (- ?x3304 ?x1009) 1) (ite $x4284 (+ (- ?x3304 ?x3706) 1) ?x1312))))
(let ((?x846 (ite $x1544 244 243)))
(let (($x4058 (>= ?x3304 ?x846)))
(let ((?x2838 (ite $x1544 274 273)))
(let (($x788 (>= ?x3304 ?x2838)))
(let ((?x1807 (ite $x788 (+ (- ?x3304 ?x2838) 1) (ite $x4058 (+ (- ?x3304 ?x846) 1) ?x806))))
(let ((?x3568 (ite $x1544 305 304)))
(let (($x2750 (>= ?x3304 ?x3568)))
(let ((?x3381 (ite $x1544 335 334)))
(let (($x3253 (>= ?x3304 ?x3381)))
(let ((?x1079 (ite $x3253 (+ (- ?x3304 ?x3381) 1) (ite $x2750 (+ (- ?x3304 ?x3568) 1) ?x1807))))
(let (($x4045 (= 0 0)))
(let ((?x3876 (ite $x2020 5 (ite $x1652 4 (ite $x2068 3 (ite $x1640 2 1))))))
(let ((?x963 (ite $x2939 9 (ite $x2157 8 (ite $x2306 7 (ite $x3517 6 ?x3876))))))
(let ((?x3495 (ite $x2195 12 (ite $x3353 11 (ite $x1230 10 ?x963)))))
(let ((?x3982 (+ (* (ite $x1336 (div (- ?x1291 1) 12) ?x1981) 12) (ite $x1336 ?x2183 ?x3495))))
(let ((?x1996 (ite $x1222 5 (ite $x2805 4 (ite $x1223 3 (ite $x3170 2 1))))))
(let ((?x1261 (ite $x4058 9 (ite $x3666 8 (ite $x4284 7 (ite $x2591 6 ?x1996))))))
(let ((?x1541 (+ (* (ite $x4045 (div (- ?x3864 1) 12) ?x3379) 12) (ite $x4045 ?x2590 (ite $x3253 12 (ite $x2750 11 (ite $x788 10 ?x1261)))))))
(and (= (- ?x1541 24003) (- ?x3982 24003)) (= (- (ite $x4045 ?x2100 ?x1079) 1) (- (ite $x1336 ?x3171 ?x2201) 1)))))))))))))))))))))))))))))))))))))))))))))))))))))))))))))))))))))))))))))))))))))))))))))))))))))))))))))))))))))))))))))))
(check-sat)
